(set-info :source |printed by MathSAT|)
(declare-fun |!{$(in_main#0)<N>}| () Int)
(declare-fun |!{$(in_main#0)<N>}.next| () Int)
(declare-fun |!{$(in_main#0)<argmax>}| () Int)
(declare-fun |!{$(in_main#0)<argmax>}.next| () Int)
(declare-fun |!{$(in_main#0)<&array>}| () Int)
(declare-fun |!{$(in_main#0)<&array>}.next| () Int)
(declare-fun |!{$(in_main#0)<k>}| () Int)
(declare-fun |!{$(in_main#0)<k>}.next| () Int)
(declare-fun |!{$(in_main#0)<k#1>}| () Int)
(declare-fun |!{$(in_main#0)<k#1>}.next| () Int)
(declare-fun |!{%memaddr}| () Int)
(declare-fun |!{%memaddr}.next| () Int)
(declare-fun |!{%mem.0}| () (Array Int Int))
(declare-fun |!{%mem.0}.next| () (Array Int Int))
(declare-fun |!{$(in_main#0)<$(in___VERIFIER_nondet_int#1)<h#<__VERIFIER_nondet_int.return>>>}| () Int)
(declare-fun |!{$(in_main#0)<$(in___VERIFIER_nondet_int#3)<h#<__VERIFIER_nondet_int.return>>>}| () Int)
(declare-fun |!{$(in_main#0)<$(in_rec_array_argmax#4)<$temp.1>>}| () Int)
(declare-fun |!{$(in_main#0)<$(in_rec_array_argmax#4)<argmax>>}| () Int)
(declare-fun |!{$(in_main#0)<$(in_rec_array_argmax#4)<$tmp>>}| () Int)
(declare-fun |!{$(in_main#0)<$(in_rec_array_argmax#4)<$(in_rec_array_argmax#0)<$temp.1>>>}| () Int)
(declare-fun |!{$(in_main#0)<$(in_rec_array_argmax#4)<$(in_rec_array_argmax#0)<argmax>>>}| () Int)
(declare-fun |!{$(in_main#0)<$(in_rec_array_argmax#4)<$(in_rec_array_argmax#0)<$tmp>>>}| () Int)
(declare-fun !pc () Int)
(declare-fun !pc.next () Int)
(declare-fun |%{$(in_main#0)<argmax>}#1| () Int)
(declare-fun |%{$(in_main#0)<k#1>}#1| () Int)
(declare-fun rec_array_argmax<0> (Int Int) Int)
(declare-fun |%{$(in_main#0)<$(in_rec_array_argmax#4)<$(in_rec_array_argmax#0)<$temp.1>>>}#3| () Int)
(declare-fun |%{$(in_main#0)<$(in_rec_array_argmax#4)<$(in_rec_array_argmax#0)<argmax>>>}#3| () Int)
(declare-fun |%{$(in_main#0)<$(in_rec_array_argmax#4)<$(in_rec_array_argmax#0)<$tmp>>>}#3| () Int)
(declare-fun |%{$(in_main#0)<$(in_rec_array_argmax#4)<$(in_rec_array_argmax#0)<rec_array_argmax.return>>>}#3| () Int)
(declare-fun |%{$(in_main#0)<$(in_rec_array_argmax#4)<$temp.1>>}#3| () Int)
(declare-fun |%{$(in_main#0)<$(in_rec_array_argmax#4)<argmax>>}#3| () Int)
(declare-fun |%{$(in_main#0)<$(in_rec_array_argmax#4)<$tmp>>}#3| () Int)
(declare-fun |%{$(in_main#0)<$(in_rec_array_argmax#4)<rec_array_argmax.return>>}#3| () Int)
(define-fun .def_54 () Int (! !pc :next !pc.next))
(define-fun .def_57 () Bool (! (= .def_54 2) :init true))
(define-fun .def_290 () Bool (= .def_54 49))
(define-fun .def_144 () Bool (= !pc.next 147))
(define-fun .def_293 () Bool (and .def_144 .def_290))
(define-fun .def_284 () Bool (= |!{$(in_main#0)<k#1>}.next| 0))
(define-fun .def_280 () Bool (= |!{$(in_main#0)<argmax>}.next| |%{$(in_main#0)<$(in_rec_array_argmax#4)<rec_array_argmax.return>>}#3|))
(define-fun .def_8 () Int (! |!{$(in_main#0)<N>}| :next |!{$(in_main#0)<N>}.next|))
(define-fun .def_105 () Bool (= .def_8 |!{$(in_main#0)<N>}.next|))
(define-fun .def_281 () Bool (and .def_105 .def_280))
(define-fun .def_12 () Int (! |!{$(in_main#0)<&array>}| :next |!{$(in_main#0)<&array>}.next|))
(define-fun .def_109 () Bool (= .def_12 |!{$(in_main#0)<&array>}.next|))
(define-fun .def_282 () Bool (and .def_109 .def_281))
(define-fun .def_14 () Int (! |!{$(in_main#0)<k>}| :next |!{$(in_main#0)<k>}.next|))
(define-fun .def_111 () Bool (= .def_14 |!{$(in_main#0)<k>}.next|))
(define-fun .def_283 () Bool (and .def_111 .def_282))
(define-fun .def_285 () Bool (and .def_283 .def_284))
(define-fun .def_18 () Int (! |!{%memaddr}| :next |!{%memaddr}.next|))
(define-fun .def_115 () Bool (= .def_18 |!{%memaddr}.next|))
(define-fun .def_286 () Bool (and .def_115 .def_285))
(define-fun .def_20 () (Array Int Int) (! |!{%mem.0}| :next |!{%mem.0}.next|))
(define-fun .def_85 () Bool (= .def_20 |!{%mem.0}.next|))
(define-fun .def_287 () Bool (and .def_85 .def_286))
(define-fun .def_266 () Bool (= |%{$(in_main#0)<$(in_rec_array_argmax#4)<$(in_rec_array_argmax#0)<rec_array_argmax.return>>>}#3| |%{$(in_main#0)<$(in_rec_array_argmax#4)<rec_array_argmax.return>>}#3|))
(define-fun .def_171 () Int (+ .def_8 .def_12))
(define-fun .def_225 () Int (+ .def_171 (- 1)))
(define-fun .def_226 () Int (select .def_20 .def_225))
(define-fun .def_227 () Int (+ .def_12 |%{$(in_main#0)<$(in_rec_array_argmax#4)<$(in_rec_array_argmax#0)<rec_array_argmax.return>>>}#3|))
(define-fun .def_228 () Int (select .def_20 .def_227))
(define-fun .def_229 () Bool (<= .def_228 .def_226))
(define-fun .def_254 () Bool (not .def_229))
(define-fun .def_168 () Int (+ .def_8 (- 3)))
(define-fun .def_169 () Int (rec_array_argmax<0> .def_12 .def_168))
(define-fun .def_218 () Bool (= .def_169 |%{$(in_main#0)<$(in_rec_array_argmax#4)<$(in_rec_array_argmax#0)<rec_array_argmax.return>>>}#3|))
(define-fun .def_173 () Int (+ .def_171 (- 2)))
(define-fun .def_174 () Int (select .def_20 .def_173))
(define-fun .def_175 () Int (+ .def_12 .def_169))
(define-fun .def_176 () Int (select .def_20 .def_175))
(define-fun .def_177 () Bool (<= .def_176 .def_174))
(define-fun .def_204 () Bool (not .def_177))
(define-fun .def_164 () Bool (= .def_8 2))
(define-fun .def_165 () Bool (not .def_164))
(define-fun .def_205 () Bool (and .def_165 .def_204))
(define-fun .def_186 () Bool (= .def_169 |%{$(in_main#0)<$(in_rec_array_argmax#4)<$(in_rec_array_argmax#0)<$temp.1>>>}#3|))
(define-fun .def_208 () Bool (and .def_186 .def_205))
(define-fun .def_192 () Bool (= .def_169 |%{$(in_main#0)<$(in_rec_array_argmax#4)<$(in_rec_array_argmax#0)<argmax>>>}#3|))
(define-fun .def_209 () Bool (and .def_192 .def_208))
(define-fun .def_198 () Bool (= .def_169 |%{$(in_main#0)<$(in_rec_array_argmax#4)<$(in_rec_array_argmax#0)<$tmp>>>}#3|))
(define-fun .def_210 () Bool (and .def_198 .def_209))
(define-fun .def_220 () Bool (and .def_210 .def_218))
(define-fun .def_215 () Int (* (- 1) |%{$(in_main#0)<$(in_rec_array_argmax#4)<$(in_rec_array_argmax#0)<rec_array_argmax.return>>>}#3|))
(define-fun .def_216 () Int (+ .def_8 .def_215))
(define-fun .def_217 () Bool (= .def_216 2))
(define-fun .def_180 () Bool (and .def_165 .def_177))
(define-fun .def_188 () Bool (and .def_180 .def_186))
(define-fun .def_194 () Bool (and .def_188 .def_192))
(define-fun .def_200 () Bool (and .def_194 .def_198))
(define-fun .def_197 () Bool (= |!{$(in_main#0)<$(in_rec_array_argmax#4)<$(in_rec_array_argmax#0)<$tmp>>>}| |%{$(in_main#0)<$(in_rec_array_argmax#4)<$(in_rec_array_argmax#0)<$tmp>>>}#3|))
(define-fun .def_191 () Bool (= |!{$(in_main#0)<$(in_rec_array_argmax#4)<$(in_rec_array_argmax#0)<argmax>>>}| |%{$(in_main#0)<$(in_rec_array_argmax#4)<$(in_rec_array_argmax#0)<argmax>>>}#3|))
(define-fun .def_185 () Bool (= |!{$(in_main#0)<$(in_rec_array_argmax#4)<$(in_rec_array_argmax#0)<$temp.1>>>}| |%{$(in_main#0)<$(in_rec_array_argmax#4)<$(in_rec_array_argmax#0)<$temp.1>>>}#3|))
(define-fun .def_187 () Bool (and .def_164 .def_185))
(define-fun .def_193 () Bool (and .def_187 .def_191))
(define-fun .def_199 () Bool (and .def_193 .def_197))
(define-fun .def_201 () Bool (or .def_199 .def_200))
(define-fun .def_219 () Bool (and .def_201 .def_217))
(define-fun .def_221 () Bool (or .def_219 .def_220))
(define-fun .def_255 () Bool (and .def_221 .def_254))
(define-fun .def_161 () Bool (= .def_8 1))
(define-fun .def_162 () Bool (not .def_161))
(define-fun .def_256 () Bool (and .def_162 .def_255))
(define-fun .def_237 () Bool (= |%{$(in_main#0)<$(in_rec_array_argmax#4)<$(in_rec_array_argmax#0)<rec_array_argmax.return>>>}#3| |%{$(in_main#0)<$(in_rec_array_argmax#4)<$temp.1>>}#3|))
(define-fun .def_258 () Bool (and .def_237 .def_256))
(define-fun .def_243 () Bool (= |%{$(in_main#0)<$(in_rec_array_argmax#4)<$(in_rec_array_argmax#0)<rec_array_argmax.return>>>}#3| |%{$(in_main#0)<$(in_rec_array_argmax#4)<argmax>>}#3|))
(define-fun .def_259 () Bool (and .def_243 .def_258))
(define-fun .def_249 () Bool (= |%{$(in_main#0)<$(in_rec_array_argmax#4)<$(in_rec_array_argmax#0)<rec_array_argmax.return>>>}#3| |%{$(in_main#0)<$(in_rec_array_argmax#4)<$tmp>>}#3|))
(define-fun .def_260 () Bool (and .def_249 .def_259))
(define-fun .def_268 () Bool (and .def_260 .def_266))
(define-fun .def_263 () Int (* (- 1) |%{$(in_main#0)<$(in_rec_array_argmax#4)<rec_array_argmax.return>>}#3|))
(define-fun .def_264 () Int (+ .def_8 .def_263))
(define-fun .def_265 () Bool (= .def_264 1))
(define-fun .def_231 () Bool (and .def_221 .def_229))
(define-fun .def_232 () Bool (and .def_162 .def_231))
(define-fun .def_239 () Bool (and .def_232 .def_237))
(define-fun .def_245 () Bool (and .def_239 .def_243))
(define-fun .def_251 () Bool (and .def_245 .def_249))
(define-fun .def_248 () Bool (= |!{$(in_main#0)<$(in_rec_array_argmax#4)<$tmp>>}| |%{$(in_main#0)<$(in_rec_array_argmax#4)<$tmp>>}#3|))
(define-fun .def_242 () Bool (= |!{$(in_main#0)<$(in_rec_array_argmax#4)<argmax>>}| |%{$(in_main#0)<$(in_rec_array_argmax#4)<argmax>>}#3|))
(define-fun .def_236 () Bool (= |!{$(in_main#0)<$(in_rec_array_argmax#4)<$temp.1>>}| |%{$(in_main#0)<$(in_rec_array_argmax#4)<$temp.1>>}#3|))
(define-fun .def_238 () Bool (and .def_161 .def_236))
(define-fun .def_244 () Bool (and .def_238 .def_242))
(define-fun .def_250 () Bool (and .def_244 .def_248))
(define-fun .def_252 () Bool (or .def_250 .def_251))
(define-fun .def_267 () Bool (and .def_252 .def_265))
(define-fun .def_269 () Bool (or .def_267 .def_268))
(define-fun .def_288 () Bool (and .def_269 .def_287))
(define-fun .def_155 () Bool (<= .def_8 .def_14))
(define-fun .def_289 () Bool (and .def_155 .def_288))
(define-fun .def_294 () Bool (and .def_289 .def_293))
(define-fun .def_89 () Bool (= !pc.next 49))
(define-fun .def_291 () Bool (and .def_89 .def_290))
(define-fun .def_157 () Int (+ .def_12 .def_14))
(define-fun .def_158 () (Array Int Int) (store .def_20 .def_157 |!{$(in_main#0)<$(in___VERIFIER_nondet_int#3)<h#<__VERIFIER_nondet_int.return>>>}|))
(define-fun .def_277 () Bool (= |!{%mem.0}.next| .def_158))
(define-fun .def_271 () Int (* (- 1) |!{$(in_main#0)<k>}.next|))
(define-fun .def_272 () Int (+ .def_14 .def_271))
(define-fun .def_273 () Bool (= .def_272 (- 1)))
(define-fun .def_10 () Int (! |!{$(in_main#0)<argmax>}| :next |!{$(in_main#0)<argmax>}.next|))
(define-fun .def_107 () Bool (= .def_10 |!{$(in_main#0)<argmax>}.next|))
(define-fun .def_119 () Bool (and .def_105 .def_107))
(define-fun .def_120 () Bool (and .def_109 .def_119))
(define-fun .def_274 () Bool (and .def_120 .def_273))
(define-fun .def_16 () Int (! |!{$(in_main#0)<k#1>}| :next |!{$(in_main#0)<k#1>}.next|))
(define-fun .def_113 () Bool (= .def_16 |!{$(in_main#0)<k#1>}.next|))
(define-fun .def_275 () Bool (and .def_113 .def_274))
(define-fun .def_276 () Bool (and .def_115 .def_275))
(define-fun .def_278 () Bool (and .def_276 .def_277))
(define-fun .def_156 () Bool (not .def_155))
(define-fun .def_279 () Bool (and .def_156 .def_278))
(define-fun .def_292 () Bool (and .def_279 .def_291))
(define-fun .def_295 () Bool (or .def_292 .def_294))
(define-fun .def_148 () Bool (= !pc.next 0))
(define-fun .def_139 () Bool (= .def_54 147))
(define-fun .def_149 () Bool (and .def_139 .def_148))
(define-fun .def_92 () Bool (<= .def_8 .def_16))
(define-fun .def_131 () Bool (and .def_92 .def_105))
(define-fun .def_132 () Bool (and .def_107 .def_131))
(define-fun .def_133 () Bool (and .def_109 .def_132))
(define-fun .def_134 () Bool (and .def_111 .def_133))
(define-fun .def_135 () Bool (and .def_113 .def_134))
(define-fun .def_136 () Bool (and .def_115 .def_135))
(define-fun .def_137 () Bool (and .def_85 .def_136))
(define-fun .def_150 () Bool (and .def_137 .def_149))
(define-fun .def_145 () Bool (and .def_139 .def_144))
(define-fun .def_123 () Int (* (- 1) |!{$(in_main#0)<k#1>}.next|))
(define-fun .def_124 () Int (+ .def_16 .def_123))
(define-fun .def_125 () Bool (= .def_124 (- 1)))
(define-fun .def_121 () Bool (and .def_111 .def_120))
(define-fun .def_126 () Bool (and .def_121 .def_125))
(define-fun .def_127 () Bool (and .def_115 .def_126))
(define-fun .def_128 () Bool (and .def_85 .def_127))
(define-fun .def_96 () Int (+ .def_10 .def_12))
(define-fun .def_97 () Int (select .def_20 .def_96))
(define-fun .def_94 () Int (+ .def_12 .def_16))
(define-fun .def_95 () Int (select .def_20 .def_94))
(define-fun .def_98 () Bool (<= .def_95 .def_97))
(define-fun .def_99 () Int (ite .def_98 1 0))
(define-fun .def_100 () Bool (= .def_99 0))
(define-fun .def_101 () Bool (not .def_100))
(define-fun .def_129 () Bool (and .def_101 .def_128))
(define-fun .def_93 () Bool (not .def_92))
(define-fun .def_130 () Bool (and .def_93 .def_129))
(define-fun .def_146 () Bool (and .def_130 .def_145))
(define-fun .def_141 () Bool (= !pc.next 167))
(define-fun .def_142 () Bool (and .def_139 .def_141))
(define-fun .def_106 () Bool (and .def_100 .def_105))
(define-fun .def_108 () Bool (and .def_106 .def_107))
(define-fun .def_110 () Bool (and .def_108 .def_109))
(define-fun .def_112 () Bool (and .def_110 .def_111))
(define-fun .def_114 () Bool (and .def_112 .def_113))
(define-fun .def_116 () Bool (and .def_114 .def_115))
(define-fun .def_117 () Bool (and .def_85 .def_116))
(define-fun .def_118 () Bool (and .def_93 .def_117))
(define-fun .def_143 () Bool (and .def_118 .def_142))
(define-fun .def_147 () Bool (or .def_143 .def_146))
(define-fun .def_151 () Bool (or .def_147 .def_150))
(define-fun .def_90 () Bool (and .def_57 .def_89))
(define-fun .def_83 () Bool (= |!{%memaddr}.next| 2))
(define-fun .def_81 () Bool (= |!{$(in_main#0)<k#1>}.next| |%{$(in_main#0)<k#1>}#1|))
(define-fun .def_79 () Bool (= |!{$(in_main#0)<k>}.next| 0))
(define-fun .def_77 () Bool (= |!{$(in_main#0)<&array>}.next| 1))
(define-fun .def_75 () Bool (= |!{$(in_main#0)<argmax>}.next| |%{$(in_main#0)<argmax>}#1|))
(define-fun .def_74 () Bool (= |!{$(in_main#0)<N>}.next| |!{$(in_main#0)<$(in___VERIFIER_nondet_int#1)<h#<__VERIFIER_nondet_int.return>>>}|))
(define-fun .def_76 () Bool (and .def_74 .def_75))
(define-fun .def_78 () Bool (and .def_76 .def_77))
(define-fun .def_80 () Bool (and .def_78 .def_79))
(define-fun .def_82 () Bool (and .def_80 .def_81))
(define-fun .def_84 () Bool (and .def_82 .def_83))
(define-fun .def_86 () Bool (and .def_84 .def_85))
(define-fun .def_69 () Bool (<= |!{$(in_main#0)<$(in___VERIFIER_nondet_int#1)<h#<__VERIFIER_nondet_int.return>>>}| 0))
(define-fun .def_70 () Bool (not .def_69))
(define-fun .def_71 () Int (ite .def_70 1 0))
(define-fun .def_72 () Bool (= .def_71 0))
(define-fun .def_73 () Bool (not .def_72))
(define-fun .def_87 () Bool (and .def_73 .def_86))
(define-fun .def_91 () Bool (and .def_87 .def_90))
(define-fun .def_152 () Bool (or .def_91 .def_151))
(define-fun .def_296 () Bool (! (or .def_152 .def_295) :trans true))
(define-fun .def_153 () Bool (= .def_54 167))
(define-fun .def_297 () Bool (! (not .def_153) :invar-property 0 :invar-property-name ||))
(assert true)
